(declare-fun bvlambda_15_ () (_ BitVec 1))
(declare-fun a91 () (Array (_ BitVec 1) (_ BitVec 4)))
(assert
(let (($e3 (_ bv0 4)))
(let (($e257 (store a91 (not false) $e3)))
(let (($e259 (select $e257 (not   bvlambda_15_))))
             (   extract      $e259)
                                                                                                                                                                                                                                                                                                                                                                                                                                                                                                                                                                                                                                                                                                                                                                                                                                                                                                             ) )                                                                                                                                                                                                                                   )  )
